Water Network: 9
***********************************************************************************************

-------------------------------- Solving Reduced Model using gurobi --------------------------
WDN Model Name: exact_reduced_wdn.mod
Gurobi 13.0.0: Set parameter LogToConsole to value 1
  tech:outlev = 1
  tech:outlev_mp = 1
Set parameter Presolve to value 1
  pre:solve = 1
Set parameter Aggregate to value 1
  pre:aggregate = 1
Set parameter TimeLimit to value 600
  lim:time = 600
Set parameter NumericFocus to value 1
  alg:numericfocus = 1
Set parameter OBBT to value 0
  mip:obbt = 0
Set parameter ScaleFlag to value 1
  pre:scale = 1
Set parameter Method to value 2
  alg:method = 2
Set parameter NodeMethod to value 1
  mip:nodemethod = 1
Set parameter NonConvex to value 2
  qp:nonconvex = 2
Set parameter MIPFocus to value 1
  mip:focus = 1
Set parameter NLPHeur to value 1
  alg:nlpheur = 1
Set parameter VarBranch to value 0
  mip:varbranch = 0
Set parameter MIPGapAbs to value 1e-06
  mip:gapabs = 9.9999999999999995e-07
Set parameter MIPGap to value 1e-06
  mip:gap = 9.9999999999999995e-07
Set parameter FeasibilityTol to value 1e-06
  alg:feastol = 9.9999999999999995e-07
  cvt:pre:feastol = 9.9999999999999995e-07
  cvt:pre:feastolrel = 1.0000000000000001e-09
  sol:chk:feastol = 9.9999999999999995e-07
  sol:chk:feastolrel = 1.0000000000000001e-09
Set parameter Heuristics to value 0.05
  mip:heurfrac = 0.050000000000000003

AMPL MP initial flat model has 211 variables (0 integer, 0 binary);
Objectives: 1 linear; 
Constraints:  479 linear; 58 quadratic;
Algebraic expressions:  58 signpowconstexp;

AMPL MP final model has 501 variables (0 integer, 0 binary);
Objectives: 1 linear; 
Constraints:  537 linear; 58 quadratic;
Algebraic expressions:  58 signpowconstexp;


Set parameter InfUnbdInfo to value 1
Gurobi Optimizer version 13.0.0 build v13.0.0rc1 (linux64 - "Debian GNU/Linux 13 (trixie)")

CPU model: INTEL(R) XEON(R) GOLD 6530, instruction set [SSE2|AVX|AVX2|AVX512]
Thread count: 32 physical cores, 64 logical processors, using up to 32 threads

Non-default parameters:
TimeLimit  600
MIPGap  1e-06
MIPGapAbs  1e-06
Method  2
ScaleFlag  1
MIPFocus  1
NodeMethod  1
OBBT  0
NLPHeur  1
VarBranch  0
InfUnbdInfo  1
NonConvex  2
NumericFocus  1
Presolve  1

Optimize a model with 537 rows, 501 columns and 1138 nonzeros (Min)
Model fingerprint: 0x322050a2
Model has 58 linear objective coefficients
Model has 58 general nonlinear constraints (116 nonlinear terms)
Variable types: 501 continuous, 0 integer (0 binary)
Coefficient statistics:
  Matrix range     [1e+00, 1e+07]
  Objective range  [1e+00, 1e+00]
  Bounds range     [3e-02, 2e+03]
  RHS range        [3e-04, 5e+07]
  NLCon coe range  [1e+00, 4e+02]
Presolve model has 58 nlconstr
Added 116 variables to disaggregate expressions
Presolve removed 96 rows and 234 columns
Presolve time: 0.00s
Presolved: 1195 rows, 384 columns, 2722 nonzeros
Presolved model has 58 bilinear constraint(s)
Presolved model has 58 nonlinear constraint(s)

Solving non-convex NLP to global optimality

Variable types: 384 continuous, 0 integer (0 binary)
Root barrier log...

Ordering time: 0.00s

Barrier statistics:
 AA' NZ     : 4.769e+03
 Factor NZ  : 1.021e+04 (roughly 1 MB of memory)
 Factor Ops : 1.356e+05 (less than 1 second per iteration)
 Threads    : 1

                  Objective                Residual
Iter       Primal          Dual         Primal    Dual     Compl     Time
   0   5.47537202e+08 -1.65857501e+09  1.90e+04 5.19e+01  7.36e+06     0s
   1   3.07836015e+08 -3.51346413e+08  2.94e+03 6.82e-13  1.18e+06     0s
   2   7.09592157e+07 -3.24111561e+07  5.08e+01 2.79e-11  7.22e+04     0s
   3   5.91662127e+07  5.46978976e+07  3.37e+00 1.05e-11  3.27e+03     0s
   4   5.79386447e+07  5.78726504e+07  3.01e-02 6.82e-13  4.41e+01     0s
   5   5.79209042e+07  5.79150419e+07  6.08e-03 6.82e-13  4.24e+00     0s
   6   5.79176390e+07  5.79157386e+07  1.68e-03 1.36e-12  1.30e+00     0s
   7   5.79169722e+07  5.79159864e+07  7.89e-04 8.19e-12  6.53e-01     0s
   8   5.79166324e+07  5.79163211e+07  3.38e-04 4.83e-13  2.03e-01     0s
   9   5.79165748e+07  5.79163573e+07  2.62e-04 2.94e-12  1.43e-01     0s
  10   5.79165621e+07  5.79164053e+07  2.45e-04 1.26e-11  1.26e-01     0s
  11   5.79165566e+07  5.79166571e+07  2.38e-04 2.03e-10  1.26e-01     0s
  12   5.79165508e+07  5.79209014e+07  2.30e-04 3.73e-09  1.17e-01     0s
  13   5.79165564e+07  5.79436291e+07  2.30e-04 1.66e-08  1.21e-01     0s
  14   5.79173704e+07  5.79523757e+07  2.30e-04 2.46e-08  5.66e-01     0s
  15   5.79194881e+07  5.79211244e+07  2.18e-04 1.46e-06  1.70e+00     0s
  16   5.79197998e+07  5.79608733e+07  2.15e-04 8.94e-08  2.93e-01     0s
  17   5.79197153e+07  5.79998969e+07  2.15e-04 1.45e-08  2.84e-01     0s
  18   5.79651441e+07  5.79617725e+07  9.39e-05 1.42e-07  1.30e+01     0s
  19   5.79668494e+07  5.80002522e+07  8.90e-05 5.85e-08  2.68e-01     0s
  20   5.79668718e+07  5.80244966e+07  8.89e-05 1.03e-04  3.07e-01     0s
  21   5.79698402e+07  5.80017753e+07  8.77e-05 1.18e-04  1.73e+00     0s
  22   5.79938685e+07  5.80029362e+07  5.92e-05 1.38e-07  9.18e+00     0s
  23   5.80225500e+07  5.80096932e+07  2.96e-05 6.33e-08  1.64e+01     0s
  24   5.80326275e+07  5.80271340e+07  1.64e-06 1.35e-04  3.94e+00     0s
  25   5.80291940e+07  5.80291219e+07  1.38e-08 2.13e-08  4.84e-02     0s
  26   5.80291559e+07  5.80291558e+07  2.36e-11 7.32e-08  2.68e-05     0s
  27   5.80291559e+07  5.80291559e+07  9.44e-11 1.19e-06  3.90e-08     0s
  28   5.80291559e+07  5.80291559e+07  7.28e-12 6.05e-07  1.08e-10     0s

Barrier solved model in 28 iterations and 0.31 seconds (0.09 work units)
Optimal objective 5.80291559e+07

Crossover time: 0.00 seconds (0.00 work units)

Root relaxation: objective 5.802916e+07, 125 iterations, 0.03 seconds (0.02 work units)

    Nodes    |    Current Node    |     Objective Bounds      |     Work
 Expl Unexpl |  Obj  Depth IntInf | Incumbent    BestBd   Gap | It/Node Time

     0     0 5.8029e+07    0   59          - 5.8029e+07      -     -    0s
     0     0 5.8050e+07    0   56          - 5.8050e+07      -     -    0s
     0     0 5.8071e+07    0   59          - 5.8071e+07      -     -    0s
     0     0 5.8074e+07    0   58          - 5.8074e+07      -     -    0s
     0     0 5.8074e+07    0   58          - 5.8074e+07      -     -    0s
     0     2 5.8074e+07    0   58          - 5.8074e+07      -     -    5s
  3718  3610 infeasible   62               - 5.8303e+07      -  43.4   10s
  5231  4800 infeasible   78               - 5.8326e+07      -  47.6   15s
  6079  5557 8.0896e+07   84   69          - 5.8326e+07      -  48.5   20s
  6659  6046 8.3328e+07   89   64          - 5.8326e+07      -  48.5   25s
  7448  6755 8.6687e+07   93   59          - 5.8332e+07      -  46.9   30s
  7767  7069 9.0345e+07   97   62          - 5.8332e+07      -  47.0   35s
  8265  7554 9.6786e+07  100   59          - 5.8332e+07      -  46.9   40s
  8987  8184 9.5789e+07  110   64          - 5.8332e+07      -  46.6   45s
  9574  8856 9.5822e+07  113   65          - 5.8334e+07      -  46.5   50s
 10783 10067 9.5933e+07  116   66          - 5.8334e+07      -  46.5   55s
 11921 11032 5.9015e+07   14   58          - 5.8370e+07      -  46.6   60s
 12955 11674 6.3251e+07   20    0          - 5.8388e+07      -  46.0   66s
 12962 11679 6.2296e+07   55    0          - 5.8388e+07      -  45.9   77s
 14333 12693 6.3576e+07   43   62          - 5.8388e+07      -  47.9   80s
 16424 13820 6.9598e+07   62   51          - 5.8388e+07      -  50.0   85s
 17203 14169 7.0576e+07   69   51          - 5.8388e+07      -  51.5   90s
 17633 14388 infeasible   75               - 5.8388e+07      -  52.1   95s
 17933 14503 7.6285e+07   80   63          - 5.8388e+07      -  52.8  100s
 18238 14709 7.4865e+07   84   71          - 5.8388e+07      -  53.3  105s
 20095 15690 1.0055e+08   90   65          - 5.8933e+07      -  55.0  111s
 21399 16305 6.2286e+07   30   58          - 5.8933e+07      -  56.3  115s
 21950 16661 6.2437e+07   32   59          - 5.8933e+07      -  56.6  120s
 22439 16842 6.3083e+07   34   58          - 5.8933e+07      -  57.2  125s
 22921 17170 6.3249e+07   35   58          - 5.8945e+07      -  57.6  131s
 23790 17699 6.5499e+07   47   58          - 5.8945e+07      -  57.6  135s
 24464 18057 6.5510e+07   48   57          - 5.8945e+07      -  57.6  141s
 24718 18265 6.5667e+07   49   57          - 5.8945e+07      -  57.7  145s
 25034 18394 6.7305e+07   50   53          - 5.8945e+07      -  58.0  150s
 25457 18734 6.5945e+07   50   58          - 5.8945e+07      -  58.1  155s
 26702 19405 7.7276e+07   89   52          - 5.9233e+07      -  58.5  163s
 27063 19582 7.5705e+07   89   56          - 5.9233e+07      -  59.2  165s
 27718 19796 7.7124e+07   92   53          - 5.9279e+07      -  59.4  171s
 28144 19843 7.7019e+07   91   51          - 5.9329e+07      -  59.9  176s
 28346 20551 7.8485e+07   93   59          - 5.9329e+07      -  59.8  180s
 29015 21164 7.6407e+07   94   54          - 5.9329e+07      -  59.3  185s
 30323 21456 7.9400e+07  103   48          - 5.9329e+07      -  58.9  190s
 31097 21892 7.9349e+07  105   50          - 5.9329e+07      -  58.9  198s
 31555 21977 7.9447e+07  105   50          - 5.9329e+07      -  58.8  202s
 31833 22580 8.0073e+07  106   51          - 5.9329e+07      -  58.8  208s
 32631 23173 8.7613e+07  117   52          - 5.9329e+07      -  59.2  211s
 33576 23223 8.6773e+07  117   53          - 5.9329e+07      -  59.2  216s
 33983 23446 8.7562e+07  119   57          - 5.9329e+07      -  58.9  222s
 34397 23548 infeasible  119               - 5.9329e+07      -  58.8  228s
 34717 24342 8.7441e+07  119   50          - 5.9329e+07      -  58.7  235s
 35870 24313 8.8618e+07  120   49          - 5.9329e+07      -  58.5  241s
 36285 24584 8.8389e+07  120   52          - 5.9329e+07      -  58.8  248s
 36761 24984 8.7971e+07  126   50          - 5.9329e+07      -  58.8  254s
 37449 25508 9.6762e+07  126   51          - 5.9329e+07      -  59.1  259s
 38381 25611 6.2445e+07   29   54          - 5.9329e+07      -  59.5  266s
 38884 25799 6.2517e+07   33   53          - 5.9329e+07      -  59.9  273s
 39256 26668 6.7027e+07   33   49          - 5.9329e+07      -  59.6  280s
 40521 27114 infeasible   47               - 5.9329e+07      -  59.9  288s
 41565 27692 6.5240e+07   62   45          - 5.9329e+07      -  59.7  296s
 42637 28157 6.2506e+07   76   48          - 5.9329e+07      -  60.1  306s
 43573 28534 6.2611e+07   77   47          - 5.9329e+07      -  60.1  316s
 44400 28560 6.3116e+07   88   44          - 5.9330e+07      -  60.1  329s
 44736 29478 6.3137e+07   88   42          - 5.9330e+07      -  60.1  341s
 45856 29909 6.3487e+07  100   44          - 5.9376e+07      -  59.8  352s
 46834 31156 6.3500e+07  100   44          - 5.9376e+07      -  59.6  363s
 48695 31145 6.4419e+07  117   47          - 5.9376e+07      -  59.6  374s
 49126 33215 6.4631e+07  119   51          - 5.9376e+07      -  59.6  387s
 51786 33719 6.4627e+07  141   42          - 5.9385e+07      -  59.6  400s
 52392 33943 6.4633e+07  142   42          - 5.9385e+07      -  59.3  414s
 52624 35587 6.5001e+07  146   47          - 5.9385e+07      -  59.3  429s
 54662 36550 6.4849e+07  147   39          - 5.9385e+07      -  59.6  444s
 55797 36728 6.4977e+07  160   40          - 5.9385e+07      -  59.6  459s
 56003 41392 6.5137e+07  161   41          - 5.9385e+07      -  59.6  474s
 61717 44008 infeasible   48               - 5.9385e+07      -  60.4  488s
 64865 44929 6.0751e+07   58   41          - 5.9385e+07      -  60.6  499s
 65894 45022 6.1586e+07   71   53          - 5.9385e+07      -  60.6  509s
 65999 45080 6.1568e+07   71   50          - 5.9385e+07      -  60.6  523s
 66061 46081 6.3345e+07   72   52          - 5.9385e+07      -  60.6  533s
 67246 47512 6.4151e+07   86   47          - 5.9471e+07      -  60.4  549s
 68875 48710 6.4161e+07   87   47          - 5.9471e+07      -  60.2  566s
 70333 50668 6.4572e+07  100   42          - 5.9471e+07      -  60.1  584s
 72613 53331 6.4452e+07  132   47          - 5.9471e+07      -  60.0  600s

Cutting planes:
  RLT: 3

Explored 75700 nodes (4536812 simplex iterations) in 600.34 seconds (105.08 work units)
Thread count was 32 (of 64 available processors)

Solution count 0

Time limit reached
Best objective -, best bound 5.947146960766e+07, gap -
Gurobi 13.0.0: time limit, without a feasible solution
4.53681e+06 simplex iterations
57 barrier iterations
75700 branching nodes
Total cost using gurobi: 0.0
gurobi solve time: 600.49 seconds

-------------------------------- Solving Recover Model using cplex --------------------------
CPLEX 22.1.2: CPLEX 22.1.2: infeasible problem
0 simplex iterations

suffix dunbdd OUT;

*******************************************************************************

Total absolute constraint violation: 1.23e+04
HEAD-LOSS CONSTRAINT: ORIGINAL vs. APPROXIMATION


Sum of original head-loss violation : 0.00e+00
Sum of approx  head-loss violation  : 0.00e+00
Sum of absolute diff (orig vs approx): 0.00e+00
Sum of relative diff (orig vs approx): 0.00e+00

*******************************************************************************

Total Cost: 0.0
cplex solve time: 0.01 seconds
